\ Model MasterProblem
\ LP format - for model browsing. Use MPS format to capture full model detail.
Maximize
  - 13780.2 C1 - 13780.2 C3 - 13780.2 C5 - 13780.2 C7 - 13780.2 C9
   - 13780.2 C11 - 13780.2 C13 - 13780.2 C15 - 13780.2 C17 - 999999 C18
   - 999999 C19 - 999999 C20 - 999999 C21 - 999999 C22 - 999999 C23
   - 999999 C24 - 999999 C25 - 999999 C26 - 999999 C27 - 999999 C28
   - 999999 C29 - 999999 C30 - 999999 C31 - 999999 C32 - 999999 C33
   - 999999 C34 - 999999 C35 - 999999 C36 - 999999 C37 - 999999 C38
   - 999999 C39 - 999999 C40 - 999999 C41 - 999999 C42 - 999999 C43
   - 999999 C44 - 999999 C45 - 999999 C46 - 999999 C47 - 999999 C48
   - 999999 C49 - 999999 C50 - 999999 C51 - 999999 C52 - 999999 C53
   - 999999 C54 - 999999 C55 - 999999 C56 - 999999 C57 - 999999 C58
   - 999999 C59
Subject To
 route_selection: C0 + C1 <= 1
 route_selection: C2 + C3 <= 1
 route_selection: C4 + C5 <= 1
 route_selection: C6 + C7 <= 1
 route_selection: C8 + C9 <= 1
 route_selection: C10 + C11 <= 1
 route_selection: C12 + C13 <= 1
 route_selection: C14 + C15 <= 1
 route_selection: C16 + C17 <= 1
 demand_const: 9200 C18 = 9200
 demand_const: 13200 C19 = 13200
 demand_const: 1000 C20 = 1000
 demand_const: 1800 C21 = 1800
 demand_const: 14600 C22 = 14600
 demand_const: 9000 C23 = 9000
 demand_const: 4000 C24 = 4000
 demand_const: 1500 C25 = 1500
 demand_const: 21400 C26 = 21400
 demand_const: 12500 C27 = 12500
 demand_const: 20000 C28 = 20000
 demand_const: 27000 C29 = 27000
 demand_const: 3700 C30 = 3700
 demand_const: 6450 C31 = 6450
 demand_const: 13500 C32 = 13500
 demand_const: 4700 C33 = 4700
 demand_const: 10000 C34 = 10000
 demand_const: 17000 C35 = 17000
 demand_const: 15000 C36 = 15000
 demand_const: 25000 C37 = 25000
 demand_const: 18700 C38 = 18700
 demand_const: 6600 C39 = 6600
 demand_const: 25000 C40 = 25000
 demand_const: 6500 C41 = 6500
 demand_const: 6500 C42 = 6500
 demand_const: 9000 C43 = 9000
 demand_const: 8800 C44 = 8800
 demand_const: 2000 C45 = 2000
 demand_const: 15500 C46 = 15500
 demand_const: 10000 C47 = 10000
 demand_const: 4000 C48 = 4000
 demand_const: 7000 C49 = 7000
 demand_const: 8000 C50 = 8000
 demand_const: 9000 C51 = 9000
 demand_const: 9000 C1 + 9000 C3 + 9000 C5 + 9000 C7 + 9000 C9 + 9000 C11
   + 9000 C13 + 9000 C15 + 9000 C17 + 4000 C52 = 4000
 demand_const: 12500 C53 = 12500
 demand_const: 5000 C54 = 5000
 demand_const: 6000 C55 = 6000
 demand_const: 6000 C1 + 6000 C3 + 6000 C5 + 6000 C7 + 6000 C9 + 6000 C11
   + 6000 C13 + 6000 C15 + 6000 C17 + 13000 C56 = 13000
 demand_const: 5400 C57 = 5400
 demand_const: 11800 C58 = 11800
 demand_const: 5500 C59 = 5500
Bounds
 C0 <= 1
 C1 <= 1
 C2 <= 1
 C3 <= 1
 C4 <= 1
 C5 <= 1
 C6 <= 1
 C7 <= 1
 C8 <= 1
 C9 <= 1
 C10 <= 1
 C11 <= 1
 C12 <= 1
 C13 <= 1
 C14 <= 1
 C15 <= 1
 C16 <= 1
 C17 <= 1
 C18 <= 1
 C19 <= 1
 C20 <= 1
 C21 <= 1
 C22 <= 1
 C23 <= 1
 C24 <= 1
 C25 <= 1
 C26 <= 1
 C27 <= 1
 C28 <= 1
 C29 <= 1
 C30 <= 1
 C31 <= 1
 C32 <= 1
 C33 <= 1
 C34 <= 1
 C35 <= 1
 C36 <= 1
 C37 <= 1
 C38 <= 1
 C39 <= 1
 C40 <= 1
 C41 <= 1
 C42 <= 1
 C43 <= 1
 C44 <= 1
 C45 <= 1
 C46 <= 1
 C47 <= 1
 C48 <= 1
 C49 <= 1
 C50 <= 1
 C51 <= 1
 C52 <= 1
 C53 <= 1
 C54 <= 1
 C55 <= 1
 C56 <= 1
 C57 <= 1
 C58 <= 1
 C59 <= 1
End
